KCeO2  [RHL,RHL1,hR4] (STD_PRIM doi:10.1016/j.commatsci.2010.05.010)
1.000000
   6.28473848783604  -1.82930510711780   0.00000000000000
   6.28473848783604   1.82930510711780   0.00000000000000
   5.75228082370187   0.00000000000000   3.12338924258355
Ce K O 
1 1 2 
Direct(4) [A1B1C2] 
   0.00000000000000   0.00000000000000   0.00000000000000  Ce    
   0.50000000000000   0.50000000000000   0.50000000000000  K     
   0.73061001300000   0.73061001300000   0.73061001300000  O     
   0.26938998700000   0.26938998700000   0.26938998700000  O
