generated by phonopy
   1.0
    25.1389539513441598   -7.3172204284711997    0.0000000000000000
    25.1389539513441598    7.3172204284711997    0.0000000000000000
    23.0091232948074804    0.0000000000000000   12.4935569703342004
Ce K O
  64   64  128
Direct
  0.0000000000000000  0.0000000000000000  0.0000000000000000
  0.2500000000000000  0.0000000000000000  0.0000000000000000
  0.5000000000000000  0.0000000000000000  0.0000000000000000
  0.7500000000000000  0.0000000000000000  0.0000000000000000
  0.0000000000000000  0.2500000000000000  0.0000000000000000
  0.2500000000000000  0.2500000000000000  0.0000000000000000
  0.5000000000000000  0.2500000000000000  0.0000000000000000
  0.7500000000000000  0.2500000000000000  0.0000000000000000
  0.0000000000000000  0.5000000000000000  0.0000000000000000
  0.2500000000000000  0.5000000000000000  0.0000000000000000
  0.5000000000000000  0.5000000000000000  0.0000000000000000
  0.7500000000000000  0.5000000000000000  0.0000000000000000
  0.0000000000000000  0.7500000000000000  0.0000000000000000
  0.2500000000000000  0.7500000000000000  0.0000000000000000
  0.5000000000000000  0.7500000000000000  0.0000000000000000
  0.7500000000000000  0.7500000000000000  0.0000000000000000
  0.0000000000000000  0.0000000000000000  0.2500000000000000
  0.2500000000000000  0.0000000000000000  0.2500000000000000
  0.5000000000000000  0.0000000000000000  0.2500000000000000
  0.7500000000000000  0.0000000000000000  0.2500000000000000
  0.0000000000000000  0.2500000000000000  0.2500000000000000
  0.2500000000000000  0.2500000000000000  0.2500000000000000
  0.5000000000000000  0.2500000000000000  0.2500000000000000
  0.7500000000000000  0.2500000000000000  0.2500000000000000
  0.0000000000000000  0.5000000000000000  0.2500000000000000
  0.2500000000000000  0.5000000000000000  0.2500000000000000
  0.5000000000000000  0.5000000000000000  0.2500000000000000
  0.7500000000000000  0.5000000000000000  0.2500000000000000
  0.0000000000000000  0.7500000000000000  0.2500000000000000
  0.2500000000000000  0.7500000000000000  0.2500000000000000
  0.5000000000000000  0.7500000000000000  0.2500000000000000
  0.7500000000000000  0.7500000000000000  0.2500000000000000
  0.0000000000000000  0.0000000000000000  0.5000000000000000
  0.2500000000000000  0.0000000000000000  0.5000000000000000
  0.5000000000000000  0.0000000000000000  0.5000000000000000
  0.7500000000000000  0.0000000000000000  0.5000000000000000
  0.0000000000000000  0.2500000000000000  0.5000000000000000
  0.2500000000000000  0.2500000000000000  0.5000000000000000
  0.5000000000000000  0.2500000000000000  0.5000000000000000
  0.7500000000000000  0.2500000000000000  0.5000000000000000
  0.0000000000000000  0.5000000000000000  0.5000000000000000
  0.2500000000000000  0.5000000000000000  0.5000000000000000
  0.5000000000000000  0.5000000000000000  0.5000000000000000
  0.7500000000000000  0.5000000000000000  0.5000000000000000
  0.0000000000000000  0.7500000000000000  0.5000000000000000
  0.2500000000000000  0.7500000000000000  0.5000000000000000
  0.5000000000000000  0.7500000000000000  0.5000000000000000
  0.7500000000000000  0.7500000000000000  0.5000000000000000
  0.0000000000000000  0.0000000000000000  0.7500000000000000
  0.2500000000000000  0.0000000000000000  0.7500000000000000
  0.5000000000000000  0.0000000000000000  0.7500000000000000
  0.7500000000000000  0.0000000000000000  0.7500000000000000
  0.0000000000000000  0.2500000000000000  0.7500000000000000
  0.2500000000000000  0.2500000000000000  0.7500000000000000
  0.5000000000000000  0.2500000000000000  0.7500000000000000
  0.7500000000000000  0.2500000000000000  0.7500000000000000
  0.0000000000000000  0.5000000000000000  0.7500000000000000
  0.2500000000000000  0.5000000000000000  0.7500000000000000
  0.5000000000000000  0.5000000000000000  0.7500000000000000
  0.7500000000000000  0.5000000000000000  0.7500000000000000
  0.0000000000000000  0.7500000000000000  0.7500000000000000
  0.2500000000000000  0.7500000000000000  0.7500000000000000
  0.5000000000000000  0.7500000000000000  0.7500000000000000
  0.7500000000000000  0.7500000000000000  0.7500000000000000
  0.1250000000000000  0.1250000000000000  0.1250000000000000
  0.3750000000000000  0.1250000000000000  0.1250000000000000
  0.6250000000000000  0.1250000000000000  0.1250000000000000
  0.8750000000000000  0.1250000000000000  0.1250000000000000
  0.1250000000000000  0.3750000000000000  0.1250000000000000
  0.3750000000000000  0.3750000000000000  0.1250000000000000
  0.6250000000000000  0.3750000000000000  0.1250000000000000
  0.8750000000000000  0.3750000000000000  0.1250000000000000
  0.1250000000000000  0.6250000000000000  0.1250000000000000
  0.3750000000000000  0.6250000000000000  0.1250000000000000
  0.6250000000000000  0.6250000000000000  0.1250000000000000
  0.8750000000000000  0.6250000000000000  0.1250000000000000
  0.1250000000000000  0.8750000000000000  0.1250000000000000
  0.3750000000000000  0.8750000000000000  0.1250000000000000
  0.6250000000000000  0.8750000000000000  0.1250000000000000
  0.8750000000000000  0.8750000000000000  0.1250000000000000
  0.1250000000000000  0.1250000000000000  0.3750000000000000
  0.3750000000000000  0.1250000000000000  0.3750000000000000
  0.6250000000000000  0.1250000000000000  0.3750000000000000
  0.8750000000000000  0.1250000000000000  0.3750000000000000
  0.1250000000000000  0.3750000000000000  0.3750000000000000
  0.3750000000000000  0.3750000000000000  0.3750000000000000
  0.6250000000000000  0.3750000000000000  0.3750000000000000
  0.8750000000000000  0.3750000000000000  0.3750000000000000
  0.1250000000000000  0.6250000000000000  0.3750000000000000
  0.3750000000000000  0.6250000000000000  0.3750000000000000
  0.6250000000000000  0.6250000000000000  0.3750000000000000
  0.8750000000000000  0.6250000000000000  0.3750000000000000
  0.1250000000000000  0.8750000000000000  0.3750000000000000
  0.3750000000000000  0.8750000000000000  0.3750000000000000
  0.6250000000000000  0.8750000000000000  0.3750000000000000
  0.8750000000000000  0.8750000000000000  0.3750000000000000
  0.1250000000000000  0.1250000000000000  0.6250000000000000
  0.3750000000000000  0.1250000000000000  0.6250000000000000
  0.6250000000000000  0.1250000000000000  0.6250000000000000
  0.8750000000000000  0.1250000000000000  0.6250000000000000
  0.1250000000000000  0.3750000000000000  0.6250000000000000
  0.3750000000000000  0.3750000000000000  0.6250000000000000
  0.6250000000000000  0.3750000000000000  0.6250000000000000
  0.8750000000000000  0.3750000000000000  0.6250000000000000
  0.1250000000000000  0.6250000000000000  0.6250000000000000
  0.3750000000000000  0.6250000000000000  0.6250000000000000
  0.6250000000000000  0.6250000000000000  0.6250000000000000
  0.8750000000000000  0.6250000000000000  0.6250000000000000
  0.1250000000000000  0.8750000000000000  0.6250000000000000
  0.3750000000000000  0.8750000000000000  0.6250000000000000
  0.6250000000000000  0.8750000000000000  0.6250000000000000
  0.8750000000000000  0.8750000000000000  0.6250000000000000
  0.1250000000000000  0.1250000000000000  0.8750000000000000
  0.3750000000000000  0.1250000000000000  0.8750000000000000
  0.6250000000000000  0.1250000000000000  0.8750000000000000
  0.8750000000000000  0.1250000000000000  0.8750000000000000
  0.1250000000000000  0.3750000000000000  0.8750000000000000
  0.3750000000000000  0.3750000000000000  0.8750000000000000
  0.6250000000000000  0.3750000000000000  0.8750000000000000
  0.8750000000000000  0.3750000000000000  0.8750000000000000
  0.1250000000000000  0.6250000000000000  0.8750000000000000
  0.3750000000000000  0.6250000000000000  0.8750000000000000
  0.6250000000000000  0.6250000000000000  0.8750000000000000
  0.8750000000000000  0.6250000000000000  0.8750000000000000
  0.1250000000000000  0.8750000000000000  0.8750000000000000
  0.3750000000000000  0.8750000000000000  0.8750000000000000
  0.6250000000000000  0.8750000000000000  0.8750000000000000
  0.8750000000000000  0.8750000000000000  0.8750000000000000
  0.1826525032500000  0.1826525032500000  0.1826525032500000
  0.4326525032500000  0.1826525032500000  0.1826525032500000
  0.6826525032499999  0.1826525032500000  0.1826525032500000
  0.9326525032499999  0.1826525032500000  0.1826525032500000
  0.1826525032500000  0.4326525032500000  0.1826525032500000
  0.4326525032500000  0.4326525032500000  0.1826525032500000
  0.6826525032499999  0.4326525032500000  0.1826525032500000
  0.9326525032499999  0.4326525032500000  0.1826525032500000
  0.1826525032500000  0.6826525032499999  0.1826525032500000
  0.4326525032500000  0.6826525032499999  0.1826525032500000
  0.6826525032499999  0.6826525032499999  0.1826525032500000
  0.9326525032499999  0.6826525032499999  0.1826525032500000
  0.1826525032500000  0.9326525032499999  0.1826525032500000
  0.4326525032500000  0.9326525032499999  0.1826525032500000
  0.6826525032499999  0.9326525032499999  0.1826525032500000
  0.9326525032499999  0.9326525032499999  0.1826525032500000
  0.1826525032500000  0.1826525032500000  0.4326525032500000
  0.4326525032500000  0.1826525032500000  0.4326525032500000
  0.6826525032499999  0.1826525032500000  0.4326525032500000
  0.9326525032499999  0.1826525032500000  0.4326525032500000
  0.1826525032500000  0.4326525032500000  0.4326525032500000
  0.4326525032500000  0.4326525032500000  0.4326525032500000
  0.6826525032499999  0.4326525032500000  0.4326525032500000
  0.9326525032499999  0.4326525032500000  0.4326525032500000
  0.1826525032500000  0.6826525032499999  0.4326525032500000
  0.4326525032500000  0.6826525032499999  0.4326525032500000
  0.6826525032499999  0.6826525032499999  0.4326525032500000
  0.9326525032499999  0.6826525032499999  0.4326525032500000
  0.1826525032500000  0.9326525032499999  0.4326525032500000
  0.4326525032500000  0.9326525032499999  0.4326525032500000
  0.6826525032499999  0.9326525032499999  0.4326525032500000
  0.9326525032499999  0.9326525032499999  0.4326525032500000
  0.1826525032500000  0.1826525032500000  0.6826525032499999
  0.4326525032500000  0.1826525032500000  0.6826525032499999
  0.6826525032499999  0.1826525032500000  0.6826525032499999
  0.9326525032499999  0.1826525032500000  0.6826525032499999
  0.1826525032500000  0.4326525032500000  0.6826525032499999
  0.4326525032500000  0.4326525032500000  0.6826525032499999
  0.6826525032499999  0.4326525032500000  0.6826525032499999
  0.9326525032499999  0.4326525032500000  0.6826525032499999
  0.1826525032500000  0.6826525032499999  0.6826525032499999
  0.4326525032500000  0.6826525032499999  0.6826525032499999
  0.6826525032499999  0.6826525032499999  0.6826525032499999
  0.9326525032499999  0.6826525032499999  0.6826525032499999
  0.1826525032500000  0.9326525032499999  0.6826525032499999
  0.4326525032500000  0.9326525032499999  0.6826525032499999
  0.6826525032499999  0.9326525032499999  0.6826525032499999
  0.9326525032499999  0.9326525032499999  0.6826525032499999
  0.1826525032500000  0.1826525032500000  0.9326525032499999
  0.4326525032500000  0.1826525032500000  0.9326525032499999
  0.6826525032499999  0.1826525032500000  0.9326525032499999
  0.9326525032499999  0.1826525032500000  0.9326525032499999
  0.1826525032500000  0.4326525032500000  0.9326525032499999
  0.4326525032500000  0.4326525032500000  0.9326525032499999
  0.6826525032499999  0.4326525032500000  0.9326525032499999
  0.9326525032499999  0.4326525032500000  0.9326525032499999
  0.1826525032500000  0.6826525032499999  0.9326525032499999
  0.4326525032500000  0.6826525032499999  0.9326525032499999
  0.6826525032499999  0.6826525032499999  0.9326525032499999
  0.9326525032499999  0.6826525032499999  0.9326525032499999
  0.1826525032500000  0.9326525032499999  0.9326525032499999
  0.4326525032500000  0.9326525032499999  0.9326525032499999
  0.6826525032499999  0.9326525032499999  0.9326525032499999
  0.9326525032499999  0.9326525032499999  0.9326525032499999
  0.0673474967500000  0.0673474967500000  0.0673474967500000
  0.3173474967500000  0.0673474967500000  0.0673474967500000
  0.5673474967500000  0.0673474967500000  0.0673474967500000
  0.8173474967500000  0.0673474967500000  0.0673474967500000
  0.0673474967500000  0.3173474967500000  0.0673474967500000
  0.3173474967500000  0.3173474967500000  0.0673474967500000
  0.5673474967500000  0.3173474967500000  0.0673474967500000
  0.8173474967500000  0.3173474967500000  0.0673474967500000
  0.0673474967500000  0.5673474967500000  0.0673474967500000
  0.3173474967500000  0.5673474967500000  0.0673474967500000
  0.5673474967500000  0.5673474967500000  0.0673474967500000
  0.8173474967500000  0.5673474967500000  0.0673474967500000
  0.0673474967500000  0.8173474967500000  0.0673474967500000
  0.3173474967500000  0.8173474967500000  0.0673474967500000
  0.5673474967500000  0.8173474967500000  0.0673474967500000
  0.8173474967500000  0.8173474967500000  0.0673474967500000
  0.0673474967500000  0.0673474967500000  0.3173474967500000
  0.3173474967500000  0.0673474967500000  0.3173474967500000
  0.5673474967500000  0.0673474967500000  0.3173474967500000
  0.8173474967500000  0.0673474967500000  0.3173474967500000
  0.0673474967500000  0.3173474967500000  0.3173474967500000
  0.3173474967500000  0.3173474967500000  0.3173474967500000
  0.5673474967500000  0.3173474967500000  0.3173474967500000
  0.8173474967500000  0.3173474967500000  0.3173474967500000
  0.0673474967500000  0.5673474967500000  0.3173474967500000
  0.3173474967500000  0.5673474967500000  0.3173474967500000
  0.5673474967500000  0.5673474967500000  0.3173474967500000
  0.8173474967500000  0.5673474967500000  0.3173474967500000
  0.0673474967500000  0.8173474967500000  0.3173474967500000
  0.3173474967500000  0.8173474967500000  0.3173474967500000
  0.5673474967500000  0.8173474967500000  0.3173474967500000
  0.8173474967500000  0.8173474967500000  0.3173474967500000
  0.0673474967500000  0.0673474967500000  0.5673474967500000
  0.3173474967500000  0.0673474967500000  0.5673474967500000
  0.5673474967500000  0.0673474967500000  0.5673474967500000
  0.8173474967500000  0.0673474967500000  0.5673474967500000
  0.0673474967500000  0.3173474967500000  0.5673474967500000
  0.3173474967500000  0.3173474967500000  0.5673474967500000
  0.5673474967500000  0.3173474967500000  0.5673474967500000
  0.8173474967500000  0.3173474967500000  0.5673474967500000
  0.0673474967500000  0.5673474967500000  0.5673474967500000
  0.3173474967500000  0.5673474967500000  0.5673474967500000
  0.5673474967500000  0.5673474967500000  0.5673474967500000
  0.8173474967500000  0.5673474967500000  0.5673474967500000
  0.0673474967500000  0.8173474967500000  0.5673474967500000
  0.3173474967500000  0.8173474967500000  0.5673474967500000
  0.5673474967500000  0.8173474967500000  0.5673474967500000
  0.8173474967500000  0.8173474967500000  0.5673474967500000
  0.0673474967500000  0.0673474967500000  0.8173474967500000
  0.3173474967500000  0.0673474967500000  0.8173474967500000
  0.5673474967500000  0.0673474967500000  0.8173474967500000
  0.8173474967500000  0.0673474967500000  0.8173474967500000
  0.0673474967500000  0.3173474967500000  0.8173474967500000
  0.3173474967500000  0.3173474967500000  0.8173474967500000
  0.5673474967500000  0.3173474967500000  0.8173474967500000
  0.8173474967500000  0.3173474967500000  0.8173474967500000
  0.0673474967500000  0.5673474967500000  0.8173474967500000
  0.3173474967500000  0.5673474967500000  0.8173474967500000
  0.5673474967500000  0.5673474967500000  0.8173474967500000
  0.8173474967500000  0.5673474967500000  0.8173474967500000
  0.0673474967500000  0.8173474967500000  0.8173474967500000
  0.3173474967500000  0.8173474967500000  0.8173474967500000
  0.5673474967500000  0.8173474967500000  0.8173474967500000
  0.8173474967500000  0.8173474967500000  0.8173474967500000
