NaCeO2 [BCT,BCT2,tI16] (STD_PRIM doi:10.1016/j.commatsci.2010.05.010)
1.000000
  -2.38930000000000   2.38930000000000   5.52138500000000
   2.38930000000000  -2.38930000000000   5.52138500000000
   2.38930000000000   2.38930000000000  -5.52138500000000
Ce Na O 
2 2 4 
Direct(8) [A2B2C4] 
   0.00000000000000   0.00000000000000   0.00000000000000  Ce    
   0.25000000000000   0.75000000000000   0.50000000000000  Ce    
   0.50000000000000   0.50000000000000   0.00000000000000  Na    
   0.75000000000000   0.25000000000000   0.50000000000000  Na    
   0.22139394060395   0.22139394060395   0.00000000000000  O     
   0.47139394060395   0.97139394060395   0.50000000000000  O     
   0.02860605939605   0.52860605939605   0.50000000000000  O     
   0.77860605939605   0.77860605939605   0.00000000000000  O     
