generated by phonopy
   1.0
    -9.5571999999999999    9.5571999999999999   22.0855400000000017
     9.5571999999999999   -9.5571999999999999   22.0855400000000017
     9.5571999999999999    9.5571999999999999  -22.0855400000000017
Ce Na O
 128  128  256
Direct
  0.0000000000000000  0.0000000000000000  0.0000000000000000
  0.2500000000000000  0.0000000000000000  0.0000000000000000
  0.5000000000000000  0.0000000000000000  0.0000000000000000
  0.7500000000000000  0.0000000000000000  0.0000000000000000
  0.0000000000000000  0.2500000000000000  0.0000000000000000
  0.2500000000000000  0.2500000000000000  0.0000000000000000
  0.5000000000000000  0.2500000000000000  0.0000000000000000
  0.7500000000000000  0.2500000000000000  0.0000000000000000
  0.0000000000000000  0.5000000000000000  0.0000000000000000
  0.2500000000000000  0.5000000000000000  0.0000000000000000
  0.5000000000000000  0.5000000000000000  0.0000000000000000
  0.7500000000000000  0.5000000000000000  0.0000000000000000
  0.0000000000000000  0.7500000000000000  0.0000000000000000
  0.2500000000000000  0.7500000000000000  0.0000000000000000
  0.5000000000000000  0.7500000000000000  0.0000000000000000
  0.7500000000000000  0.7500000000000000  0.0000000000000000
  0.0000000000000000  0.0000000000000000  0.2500000000000000
  0.2500000000000000  0.0000000000000000  0.2500000000000000
  0.5000000000000000  0.0000000000000000  0.2500000000000000
  0.7500000000000000  0.0000000000000000  0.2500000000000000
  0.0000000000000000  0.2500000000000000  0.2500000000000000
  0.2500000000000000  0.2500000000000000  0.2500000000000000
  0.5000000000000000  0.2500000000000000  0.2500000000000000
  0.7500000000000000  0.2500000000000000  0.2500000000000000
  0.0000000000000000  0.5000000000000000  0.2500000000000000
  0.2500000000000000  0.5000000000000000  0.2500000000000000
  0.5000000000000000  0.5000000000000000  0.2500000000000000
  0.7500000000000000  0.5000000000000000  0.2500000000000000
  0.0000000000000000  0.7500000000000000  0.2500000000000000
  0.2500000000000000  0.7500000000000000  0.2500000000000000
  0.5000000000000000  0.7500000000000000  0.2500000000000000
  0.7500000000000000  0.7500000000000000  0.2500000000000000
  0.0000000000000000  0.0000000000000000  0.5000000000000000
  0.2500000000000000  0.0000000000000000  0.5000000000000000
  0.5000000000000000  0.0000000000000000  0.5000000000000000
  0.7500000000000000  0.0000000000000000  0.5000000000000000
  0.0000000000000000  0.2500000000000000  0.5000000000000000
  0.2500000000000000  0.2500000000000000  0.5000000000000000
  0.5000000000000000  0.2500000000000000  0.5000000000000000
  0.7500000000000000  0.2500000000000000  0.5000000000000000
  0.0000000000000000  0.5000000000000000  0.5000000000000000
  0.2500000000000000  0.5000000000000000  0.5000000000000000
  0.5000000000000000  0.5000000000000000  0.5000000000000000
  0.7500000000000000  0.5000000000000000  0.5000000000000000
  0.0000000000000000  0.7500000000000000  0.5000000000000000
  0.2500000000000000  0.7500000000000000  0.5000000000000000
  0.5000000000000000  0.7500000000000000  0.5000000000000000
  0.7500000000000000  0.7500000000000000  0.5000000000000000
  0.0000000000000000  0.0000000000000000  0.7500000000000000
  0.2500000000000000  0.0000000000000000  0.7500000000000000
  0.5000000000000000  0.0000000000000000  0.7500000000000000
  0.7500000000000000  0.0000000000000000  0.7500000000000000
  0.0000000000000000  0.2500000000000000  0.7500000000000000
  0.2500000000000000  0.2500000000000000  0.7500000000000000
  0.5000000000000000  0.2500000000000000  0.7500000000000000
  0.7500000000000000  0.2500000000000000  0.7500000000000000
  0.0000000000000000  0.5000000000000000  0.7500000000000000
  0.2500000000000000  0.5000000000000000  0.7500000000000000
  0.5000000000000000  0.5000000000000000  0.7500000000000000
  0.7500000000000000  0.5000000000000000  0.7500000000000000
  0.0000000000000000  0.7500000000000000  0.7500000000000000
  0.2500000000000000  0.7500000000000000  0.7500000000000000
  0.5000000000000000  0.7500000000000000  0.7500000000000000
  0.7500000000000000  0.7500000000000000  0.7500000000000000
  0.0625000000000000  0.1875000000000000  0.1250000000000000
  0.3125000000000000  0.1875000000000000  0.1250000000000000
  0.5625000000000000  0.1875000000000000  0.1250000000000000
  0.8125000000000000  0.1875000000000000  0.1250000000000000
  0.0625000000000000  0.4375000000000000  0.1250000000000000
  0.3125000000000000  0.4375000000000000  0.1250000000000000
  0.5625000000000000  0.4375000000000000  0.1250000000000000
  0.8125000000000000  0.4375000000000000  0.1250000000000000
  0.0625000000000000  0.6875000000000000  0.1250000000000000
  0.3125000000000000  0.6875000000000000  0.1250000000000000
  0.5625000000000000  0.6875000000000000  0.1250000000000000
  0.8125000000000000  0.6875000000000000  0.1250000000000000
  0.0625000000000000  0.9375000000000000  0.1250000000000000
  0.3125000000000000  0.9375000000000000  0.1250000000000000
  0.5625000000000000  0.9375000000000000  0.1250000000000000
  0.8125000000000000  0.9375000000000000  0.1250000000000000
  0.0625000000000000  0.1875000000000000  0.3750000000000000
  0.3125000000000000  0.1875000000000000  0.3750000000000000
  0.5625000000000000  0.1875000000000000  0.3750000000000000
  0.8125000000000000  0.1875000000000000  0.3750000000000000
  0.0625000000000000  0.4375000000000000  0.3750000000000000
  0.3125000000000000  0.4375000000000000  0.3750000000000000
  0.5625000000000000  0.4375000000000000  0.3750000000000000
  0.8125000000000000  0.4375000000000000  0.3750000000000000
  0.0625000000000000  0.6875000000000000  0.3750000000000000
  0.3125000000000000  0.6875000000000000  0.3750000000000000
  0.5625000000000000  0.6875000000000000  0.3750000000000000
  0.8125000000000000  0.6875000000000000  0.3750000000000000
  0.0625000000000000  0.9375000000000000  0.3750000000000000
  0.3125000000000000  0.9375000000000000  0.3750000000000000
  0.5625000000000000  0.9375000000000000  0.3750000000000000
  0.8125000000000000  0.9375000000000000  0.3750000000000000
  0.0625000000000000  0.1875000000000000  0.6250000000000000
  0.3125000000000000  0.1875000000000000  0.6250000000000000
  0.5625000000000000  0.1875000000000000  0.6250000000000000
  0.8125000000000000  0.1875000000000000  0.6250000000000000
  0.0625000000000000  0.4375000000000000  0.6250000000000000
  0.3125000000000000  0.4375000000000000  0.6250000000000000
  0.5625000000000000  0.4375000000000000  0.6250000000000000
  0.8125000000000000  0.4375000000000000  0.6250000000000000
  0.0625000000000000  0.6875000000000000  0.6250000000000000
  0.3125000000000000  0.6875000000000000  0.6250000000000000
  0.5625000000000000  0.6875000000000000  0.6250000000000000
  0.8125000000000000  0.6875000000000000  0.6250000000000000
  0.0625000000000000  0.9375000000000000  0.6250000000000000
  0.3125000000000000  0.9375000000000000  0.6250000000000000
  0.5625000000000000  0.9375000000000000  0.6250000000000000
  0.8125000000000000  0.9375000000000000  0.6250000000000000
  0.0625000000000000  0.1875000000000000  0.8750000000000000
  0.3125000000000000  0.1875000000000000  0.8750000000000000
  0.5625000000000000  0.1875000000000000  0.8750000000000000
  0.8125000000000000  0.1875000000000000  0.8750000000000000
  0.0625000000000000  0.4375000000000000  0.8750000000000000
  0.3125000000000000  0.4375000000000000  0.8750000000000000
  0.5625000000000000  0.4375000000000000  0.8750000000000000
  0.8125000000000000  0.4375000000000000  0.8750000000000000
  0.0625000000000000  0.6875000000000000  0.8750000000000000
  0.3125000000000000  0.6875000000000000  0.8750000000000000
  0.5625000000000000  0.6875000000000000  0.8750000000000000
  0.8125000000000000  0.6875000000000000  0.8750000000000000
  0.0625000000000000  0.9375000000000000  0.8750000000000000
  0.3125000000000000  0.9375000000000000  0.8750000000000000
  0.5625000000000000  0.9375000000000000  0.8750000000000000
  0.8125000000000000  0.9375000000000000  0.8750000000000000
  0.1250000000000000  0.1250000000000000  0.0000000000000000
  0.3750000000000000  0.1250000000000000  0.0000000000000000
  0.6250000000000000  0.1250000000000000  0.0000000000000000
  0.8750000000000000  0.1250000000000000  0.0000000000000000
  0.1250000000000000  0.3750000000000000  0.0000000000000000
  0.3750000000000000  0.3750000000000000  0.0000000000000000
  0.6250000000000000  0.3750000000000000  0.0000000000000000
  0.8750000000000000  0.3750000000000000  0.0000000000000000
  0.1250000000000000  0.6250000000000000  0.0000000000000000
  0.3750000000000000  0.6250000000000000  0.0000000000000000
  0.6250000000000000  0.6250000000000000  0.0000000000000000
  0.8750000000000000  0.6250000000000000  0.0000000000000000
  0.1250000000000000  0.8750000000000000  0.0000000000000000
  0.3750000000000000  0.8750000000000000  0.0000000000000000
  0.6250000000000000  0.8750000000000000  0.0000000000000000
  0.8750000000000000  0.8750000000000000  0.0000000000000000
  0.1250000000000000  0.1250000000000000  0.2500000000000000
  0.3750000000000000  0.1250000000000000  0.2500000000000000
  0.6250000000000000  0.1250000000000000  0.2500000000000000
  0.8750000000000000  0.1250000000000000  0.2500000000000000
  0.1250000000000000  0.3750000000000000  0.2500000000000000
  0.3750000000000000  0.3750000000000000  0.2500000000000000
  0.6250000000000000  0.3750000000000000  0.2500000000000000
  0.8750000000000000  0.3750000000000000  0.2500000000000000
  0.1250000000000000  0.6250000000000000  0.2500000000000000
  0.3750000000000000  0.6250000000000000  0.2500000000000000
  0.6250000000000000  0.6250000000000000  0.2500000000000000
  0.8750000000000000  0.6250000000000000  0.2500000000000000
  0.1250000000000000  0.8750000000000000  0.2500000000000000
  0.3750000000000000  0.8750000000000000  0.2500000000000000
  0.6250000000000000  0.8750000000000000  0.2500000000000000
  0.8750000000000000  0.8750000000000000  0.2500000000000000
  0.1250000000000000  0.1250000000000000  0.5000000000000000
  0.3750000000000000  0.1250000000000000  0.5000000000000000
  0.6250000000000000  0.1250000000000000  0.5000000000000000
  0.8750000000000000  0.1250000000000000  0.5000000000000000
  0.1250000000000000  0.3750000000000000  0.5000000000000000
  0.3750000000000000  0.3750000000000000  0.5000000000000000
  0.6250000000000000  0.3750000000000000  0.5000000000000000
  0.8750000000000000  0.3750000000000000  0.5000000000000000
  0.1250000000000000  0.6250000000000000  0.5000000000000000
  0.3750000000000000  0.6250000000000000  0.5000000000000000
  0.6250000000000000  0.6250000000000000  0.5000000000000000
  0.8750000000000000  0.6250000000000000  0.5000000000000000
  0.1250000000000000  0.8750000000000000  0.5000000000000000
  0.3750000000000000  0.8750000000000000  0.5000000000000000
  0.6250000000000000  0.8750000000000000  0.5000000000000000
  0.8750000000000000  0.8750000000000000  0.5000000000000000
  0.1250000000000000  0.1250000000000000  0.7500000000000000
  0.3750000000000000  0.1250000000000000  0.7500000000000000
  0.6250000000000000  0.1250000000000000  0.7500000000000000
  0.8750000000000000  0.1250000000000000  0.7500000000000000
  0.1250000000000000  0.3750000000000000  0.7500000000000000
  0.3750000000000000  0.3750000000000000  0.7500000000000000
  0.6250000000000000  0.3750000000000000  0.7500000000000000
  0.8750000000000000  0.3750000000000000  0.7500000000000000
  0.1250000000000000  0.6250000000000000  0.7500000000000000
  0.3750000000000000  0.6250000000000000  0.7500000000000000
  0.6250000000000000  0.6250000000000000  0.7500000000000000
  0.8750000000000000  0.6250000000000000  0.7500000000000000
  0.1250000000000000  0.8750000000000000  0.7500000000000000
  0.3750000000000000  0.8750000000000000  0.7500000000000000
  0.6250000000000000  0.8750000000000000  0.7500000000000000
  0.8750000000000000  0.8750000000000000  0.7500000000000000
  0.1875000000000000  0.0625000000000000  0.1250000000000000
  0.4375000000000000  0.0625000000000000  0.1250000000000000
  0.6875000000000000  0.0625000000000000  0.1250000000000000
  0.9375000000000000  0.0625000000000000  0.1250000000000000
  0.1875000000000000  0.3125000000000000  0.1250000000000000
  0.4375000000000000  0.3125000000000000  0.1250000000000000
  0.6875000000000000  0.3125000000000000  0.1250000000000000
  0.9375000000000000  0.3125000000000000  0.1250000000000000
  0.1875000000000000  0.5625000000000000  0.1250000000000000
  0.4375000000000000  0.5625000000000000  0.1250000000000000
  0.6875000000000000  0.5625000000000000  0.1250000000000000
  0.9375000000000000  0.5625000000000000  0.1250000000000000
  0.1875000000000000  0.8125000000000000  0.1250000000000000
  0.4375000000000000  0.8125000000000000  0.1250000000000000
  0.6875000000000000  0.8125000000000000  0.1250000000000000
  0.9375000000000000  0.8125000000000000  0.1250000000000000
  0.1875000000000000  0.0625000000000000  0.3750000000000000
  0.4375000000000000  0.0625000000000000  0.3750000000000000
  0.6875000000000000  0.0625000000000000  0.3750000000000000
  0.9375000000000000  0.0625000000000000  0.3750000000000000
  0.1875000000000000  0.3125000000000000  0.3750000000000000
  0.4375000000000000  0.3125000000000000  0.3750000000000000
  0.6875000000000000  0.3125000000000000  0.3750000000000000
  0.9375000000000000  0.3125000000000000  0.3750000000000000
  0.1875000000000000  0.5625000000000000  0.3750000000000000
  0.4375000000000000  0.5625000000000000  0.3750000000000000
  0.6875000000000000  0.5625000000000000  0.3750000000000000
  0.9375000000000000  0.5625000000000000  0.3750000000000000
  0.1875000000000000  0.8125000000000000  0.3750000000000000
  0.4375000000000000  0.8125000000000000  0.3750000000000000
  0.6875000000000000  0.8125000000000000  0.3750000000000000
  0.9375000000000000  0.8125000000000000  0.3750000000000000
  0.1875000000000000  0.0625000000000000  0.6250000000000000
  0.4375000000000000  0.0625000000000000  0.6250000000000000
  0.6875000000000000  0.0625000000000000  0.6250000000000000
  0.9375000000000000  0.0625000000000000  0.6250000000000000
  0.1875000000000000  0.3125000000000000  0.6250000000000000
  0.4375000000000000  0.3125000000000000  0.6250000000000000
  0.6875000000000000  0.3125000000000000  0.6250000000000000
  0.9375000000000000  0.3125000000000000  0.6250000000000000
  0.1875000000000000  0.5625000000000000  0.6250000000000000
  0.4375000000000000  0.5625000000000000  0.6250000000000000
  0.6875000000000000  0.5625000000000000  0.6250000000000000
  0.9375000000000000  0.5625000000000000  0.6250000000000000
  0.1875000000000000  0.8125000000000000  0.6250000000000000
  0.4375000000000000  0.8125000000000000  0.6250000000000000
  0.6875000000000000  0.8125000000000000  0.6250000000000000
  0.9375000000000000  0.8125000000000000  0.6250000000000000
  0.1875000000000000  0.0625000000000000  0.8750000000000000
  0.4375000000000000  0.0625000000000000  0.8750000000000000
  0.6875000000000000  0.0625000000000000  0.8750000000000000
  0.9375000000000000  0.0625000000000000  0.8750000000000000
  0.1875000000000000  0.3125000000000000  0.8750000000000000
  0.4375000000000000  0.3125000000000000  0.8750000000000000
  0.6875000000000000  0.3125000000000000  0.8750000000000000
  0.9375000000000000  0.3125000000000000  0.8750000000000000
  0.1875000000000000  0.5625000000000000  0.8750000000000000
  0.4375000000000000  0.5625000000000000  0.8750000000000000
  0.6875000000000000  0.5625000000000000  0.8750000000000000
  0.9375000000000000  0.5625000000000000  0.8750000000000000
  0.1875000000000000  0.8125000000000000  0.8750000000000000
  0.4375000000000000  0.8125000000000000  0.8750000000000000
  0.6875000000000000  0.8125000000000000  0.8750000000000000
  0.9375000000000000  0.8125000000000000  0.8750000000000000
  0.0553484851509875  0.0553484851509875  0.0000000000000000
  0.3053484851509875  0.0553484851509875  0.0000000000000000
  0.5553484851509876  0.0553484851509875  0.0000000000000000
  0.8053484851509876  0.0553484851509875  0.0000000000000000
  0.0553484851509875  0.3053484851509875  0.0000000000000000
  0.3053484851509875  0.3053484851509875  0.0000000000000000
  0.5553484851509876  0.3053484851509875  0.0000000000000000
  0.8053484851509876  0.3053484851509875  0.0000000000000000
  0.0553484851509875  0.5553484851509876  0.0000000000000000
  0.3053484851509875  0.5553484851509876  0.0000000000000000
  0.5553484851509876  0.5553484851509876  0.0000000000000000
  0.8053484851509876  0.5553484851509876  0.0000000000000000
  0.0553484851509875  0.8053484851509876  0.0000000000000000
  0.3053484851509875  0.8053484851509876  0.0000000000000000
  0.5553484851509876  0.8053484851509876  0.0000000000000000
  0.8053484851509876  0.8053484851509876  0.0000000000000000
  0.0553484851509875  0.0553484851509875  0.2500000000000000
  0.3053484851509875  0.0553484851509875  0.2500000000000000
  0.5553484851509876  0.0553484851509875  0.2500000000000000
  0.8053484851509876  0.0553484851509875  0.2500000000000000
  0.0553484851509875  0.3053484851509875  0.2500000000000000
  0.3053484851509875  0.3053484851509875  0.2500000000000000
  0.5553484851509876  0.3053484851509875  0.2500000000000000
  0.8053484851509876  0.3053484851509875  0.2500000000000000
  0.0553484851509875  0.5553484851509876  0.2500000000000000
  0.3053484851509875  0.5553484851509876  0.2500000000000000
  0.5553484851509876  0.5553484851509876  0.2500000000000000
  0.8053484851509876  0.5553484851509876  0.2500000000000000
  0.0553484851509875  0.8053484851509876  0.2500000000000000
  0.3053484851509875  0.8053484851509876  0.2500000000000000
  0.5553484851509876  0.8053484851509876  0.2500000000000000
  0.8053484851509876  0.8053484851509876  0.2500000000000000
  0.0553484851509875  0.0553484851509875  0.5000000000000000
  0.3053484851509875  0.0553484851509875  0.5000000000000000
  0.5553484851509876  0.0553484851509875  0.5000000000000000
  0.8053484851509876  0.0553484851509875  0.5000000000000000
  0.0553484851509875  0.3053484851509875  0.5000000000000000
  0.3053484851509875  0.3053484851509875  0.5000000000000000
  0.5553484851509876  0.3053484851509875  0.5000000000000000
  0.8053484851509876  0.3053484851509875  0.5000000000000000
  0.0553484851509875  0.5553484851509876  0.5000000000000000
  0.3053484851509875  0.5553484851509876  0.5000000000000000
  0.5553484851509876  0.5553484851509876  0.5000000000000000
  0.8053484851509876  0.5553484851509876  0.5000000000000000
  0.0553484851509875  0.8053484851509876  0.5000000000000000
  0.3053484851509875  0.8053484851509876  0.5000000000000000
  0.5553484851509876  0.8053484851509876  0.5000000000000000
  0.8053484851509876  0.8053484851509876  0.5000000000000000
  0.0553484851509875  0.0553484851509875  0.7500000000000000
  0.3053484851509875  0.0553484851509875  0.7500000000000000
  0.5553484851509876  0.0553484851509875  0.7500000000000000
  0.8053484851509876  0.0553484851509875  0.7500000000000000
  0.0553484851509875  0.3053484851509875  0.7500000000000000
  0.3053484851509875  0.3053484851509875  0.7500000000000000
  0.5553484851509876  0.3053484851509875  0.7500000000000000
  0.8053484851509876  0.3053484851509875  0.7500000000000000
  0.0553484851509875  0.5553484851509876  0.7500000000000000
  0.3053484851509875  0.5553484851509876  0.7500000000000000
  0.5553484851509876  0.5553484851509876  0.7500000000000000
  0.8053484851509876  0.5553484851509876  0.7500000000000000
  0.0553484851509875  0.8053484851509876  0.7500000000000000
  0.3053484851509875  0.8053484851509876  0.7500000000000000
  0.5553484851509876  0.8053484851509876  0.7500000000000000
  0.8053484851509876  0.8053484851509876  0.7500000000000000
  0.1178484851509875  0.2428484851509875  0.1250000000000000
  0.3678484851509875  0.2428484851509875  0.1250000000000000
  0.6178484851509876  0.2428484851509875  0.1250000000000000
  0.8678484851509876  0.2428484851509875  0.1250000000000000
  0.1178484851509875  0.4928484851509875  0.1250000000000000
  0.3678484851509875  0.4928484851509875  0.1250000000000000
  0.6178484851509876  0.4928484851509875  0.1250000000000000
  0.8678484851509876  0.4928484851509875  0.1250000000000000
  0.1178484851509875  0.7428484851509876  0.1250000000000000
  0.3678484851509875  0.7428484851509876  0.1250000000000000
  0.6178484851509876  0.7428484851509876  0.1250000000000000
  0.8678484851509876  0.7428484851509876  0.1250000000000000
  0.1178484851509875  0.9928484851509876  0.1250000000000000
  0.3678484851509875  0.9928484851509876  0.1250000000000000
  0.6178484851509876  0.9928484851509876  0.1250000000000000
  0.8678484851509876  0.9928484851509876  0.1250000000000000
  0.1178484851509875  0.2428484851509875  0.3750000000000000
  0.3678484851509875  0.2428484851509875  0.3750000000000000
  0.6178484851509876  0.2428484851509875  0.3750000000000000
  0.8678484851509876  0.2428484851509875  0.3750000000000000
  0.1178484851509875  0.4928484851509875  0.3750000000000000
  0.3678484851509875  0.4928484851509875  0.3750000000000000
  0.6178484851509876  0.4928484851509875  0.3750000000000000
  0.8678484851509876  0.4928484851509875  0.3750000000000000
  0.1178484851509875  0.7428484851509876  0.3750000000000000
  0.3678484851509875  0.7428484851509876  0.3750000000000000
  0.6178484851509876  0.7428484851509876  0.3750000000000000
  0.8678484851509876  0.7428484851509876  0.3750000000000000
  0.1178484851509875  0.9928484851509876  0.3750000000000000
  0.3678484851509875  0.9928484851509876  0.3750000000000000
  0.6178484851509876  0.9928484851509876  0.3750000000000000
  0.8678484851509876  0.9928484851509876  0.3750000000000000
  0.1178484851509875  0.2428484851509875  0.6250000000000000
  0.3678484851509875  0.2428484851509875  0.6250000000000000
  0.6178484851509876  0.2428484851509875  0.6250000000000000
  0.8678484851509876  0.2428484851509875  0.6250000000000000
  0.1178484851509875  0.4928484851509875  0.6250000000000000
  0.3678484851509875  0.4928484851509875  0.6250000000000000
  0.6178484851509876  0.4928484851509875  0.6250000000000000
  0.8678484851509876  0.4928484851509875  0.6250000000000000
  0.1178484851509875  0.7428484851509876  0.6250000000000000
  0.3678484851509875  0.7428484851509876  0.6250000000000000
  0.6178484851509876  0.7428484851509876  0.6250000000000000
  0.8678484851509876  0.7428484851509876  0.6250000000000000
  0.1178484851509875  0.9928484851509876  0.6250000000000000
  0.3678484851509875  0.9928484851509876  0.6250000000000000
  0.6178484851509876  0.9928484851509876  0.6250000000000000
  0.8678484851509876  0.9928484851509876  0.6250000000000000
  0.1178484851509875  0.2428484851509875  0.8750000000000000
  0.3678484851509875  0.2428484851509875  0.8750000000000000
  0.6178484851509876  0.2428484851509875  0.8750000000000000
  0.8678484851509876  0.2428484851509875  0.8750000000000000
  0.1178484851509875  0.4928484851509875  0.8750000000000000
  0.3678484851509875  0.4928484851509875  0.8750000000000000
  0.6178484851509876  0.4928484851509875  0.8750000000000000
  0.8678484851509876  0.4928484851509875  0.8750000000000000
  0.1178484851509875  0.7428484851509876  0.8750000000000000
  0.3678484851509875  0.7428484851509876  0.8750000000000000
  0.6178484851509876  0.7428484851509876  0.8750000000000000
  0.8678484851509876  0.7428484851509876  0.8750000000000000
  0.1178484851509875  0.9928484851509876  0.8750000000000000
  0.3678484851509875  0.9928484851509876  0.8750000000000000
  0.6178484851509876  0.9928484851509876  0.8750000000000000
  0.8678484851509876  0.9928484851509876  0.8750000000000000
  0.0071515148490125  0.1321515148490125  0.1250000000000000
  0.2571515148490125  0.1321515148490125  0.1250000000000000
  0.5071515148490126  0.1321515148490125  0.1250000000000000
  0.7571515148490126  0.1321515148490125  0.1250000000000000
  0.0071515148490125  0.3821515148490125  0.1250000000000000
  0.2571515148490125  0.3821515148490125  0.1250000000000000
  0.5071515148490126  0.3821515148490125  0.1250000000000000
  0.7571515148490126  0.3821515148490125  0.1250000000000000
  0.0071515148490125  0.6321515148490124  0.1250000000000000
  0.2571515148490125  0.6321515148490124  0.1250000000000000
  0.5071515148490126  0.6321515148490124  0.1250000000000000
  0.7571515148490126  0.6321515148490124  0.1250000000000000
  0.0071515148490125  0.8821515148490124  0.1250000000000000
  0.2571515148490125  0.8821515148490124  0.1250000000000000
  0.5071515148490126  0.8821515148490124  0.1250000000000000
  0.7571515148490126  0.8821515148490124  0.1250000000000000
  0.0071515148490125  0.1321515148490125  0.3750000000000000
  0.2571515148490125  0.1321515148490125  0.3750000000000000
  0.5071515148490126  0.1321515148490125  0.3750000000000000
  0.7571515148490126  0.1321515148490125  0.3750000000000000
  0.0071515148490125  0.3821515148490125  0.3750000000000000
  0.2571515148490125  0.3821515148490125  0.3750000000000000
  0.5071515148490126  0.3821515148490125  0.3750000000000000
  0.7571515148490126  0.3821515148490125  0.3750000000000000
  0.0071515148490125  0.6321515148490124  0.3750000000000000
  0.2571515148490125  0.6321515148490124  0.3750000000000000
  0.5071515148490126  0.6321515148490124  0.3750000000000000
  0.7571515148490126  0.6321515148490124  0.3750000000000000
  0.0071515148490125  0.8821515148490124  0.3750000000000000
  0.2571515148490125  0.8821515148490124  0.3750000000000000
  0.5071515148490126  0.8821515148490124  0.3750000000000000
  0.7571515148490126  0.8821515148490124  0.3750000000000000
  0.0071515148490125  0.1321515148490125  0.6250000000000000
  0.2571515148490125  0.1321515148490125  0.6250000000000000
  0.5071515148490126  0.1321515148490125  0.6250000000000000
  0.7571515148490126  0.1321515148490125  0.6250000000000000
  0.0071515148490125  0.3821515148490125  0.6250000000000000
  0.2571515148490125  0.3821515148490125  0.6250000000000000
  0.5071515148490126  0.3821515148490125  0.6250000000000000
  0.7571515148490126  0.3821515148490125  0.6250000000000000
  0.0071515148490125  0.6321515148490124  0.6250000000000000
  0.2571515148490125  0.6321515148490124  0.6250000000000000
  0.5071515148490126  0.6321515148490124  0.6250000000000000
  0.7571515148490126  0.6321515148490124  0.6250000000000000
  0.0071515148490125  0.8821515148490124  0.6250000000000000
  0.2571515148490125  0.8821515148490124  0.6250000000000000
  0.5071515148490126  0.8821515148490124  0.6250000000000000
  0.7571515148490126  0.8821515148490124  0.6250000000000000
  0.0071515148490125  0.1321515148490125  0.8750000000000000
  0.2571515148490125  0.1321515148490125  0.8750000000000000
  0.5071515148490126  0.1321515148490125  0.8750000000000000
  0.7571515148490126  0.1321515148490125  0.8750000000000000
  0.0071515148490125  0.3821515148490125  0.8750000000000000
  0.2571515148490125  0.3821515148490125  0.8750000000000000
  0.5071515148490126  0.3821515148490125  0.8750000000000000
  0.7571515148490126  0.3821515148490125  0.8750000000000000
  0.0071515148490125  0.6321515148490124  0.8750000000000000
  0.2571515148490125  0.6321515148490124  0.8750000000000000
  0.5071515148490126  0.6321515148490124  0.8750000000000000
  0.7571515148490126  0.6321515148490124  0.8750000000000000
  0.0071515148490125  0.8821515148490124  0.8750000000000000
  0.2571515148490125  0.8821515148490124  0.8750000000000000
  0.5071515148490126  0.8821515148490124  0.8750000000000000
  0.7571515148490126  0.8821515148490124  0.8750000000000000
  0.1946515148490125  0.1946515148490125  0.0000000000000000
  0.4446515148490125  0.1946515148490125  0.0000000000000000
  0.6946515148490124  0.1946515148490125  0.0000000000000000
  0.9446515148490124  0.1946515148490125  0.0000000000000000
  0.1946515148490125  0.4446515148490125  0.0000000000000000
  0.4446515148490125  0.4446515148490125  0.0000000000000000
  0.6946515148490124  0.4446515148490125  0.0000000000000000
  0.9446515148490124  0.4446515148490125  0.0000000000000000
  0.1946515148490125  0.6946515148490124  0.0000000000000000
  0.4446515148490125  0.6946515148490124  0.0000000000000000
  0.6946515148490124  0.6946515148490124  0.0000000000000000
  0.9446515148490124  0.6946515148490124  0.0000000000000000
  0.1946515148490125  0.9446515148490124  0.0000000000000000
  0.4446515148490125  0.9446515148490124  0.0000000000000000
  0.6946515148490124  0.9446515148490124  0.0000000000000000
  0.9446515148490124  0.9446515148490124  0.0000000000000000
  0.1946515148490125  0.1946515148490125  0.2500000000000000
  0.4446515148490125  0.1946515148490125  0.2500000000000000
  0.6946515148490124  0.1946515148490125  0.2500000000000000
  0.9446515148490124  0.1946515148490125  0.2500000000000000
  0.1946515148490125  0.4446515148490125  0.2500000000000000
  0.4446515148490125  0.4446515148490125  0.2500000000000000
  0.6946515148490124  0.4446515148490125  0.2500000000000000
  0.9446515148490124  0.4446515148490125  0.2500000000000000
  0.1946515148490125  0.6946515148490124  0.2500000000000000
  0.4446515148490125  0.6946515148490124  0.2500000000000000
  0.6946515148490124  0.6946515148490124  0.2500000000000000
  0.9446515148490124  0.6946515148490124  0.2500000000000000
  0.1946515148490125  0.9446515148490124  0.2500000000000000
  0.4446515148490125  0.9446515148490124  0.2500000000000000
  0.6946515148490124  0.9446515148490124  0.2500000000000000
  0.9446515148490124  0.9446515148490124  0.2500000000000000
  0.1946515148490125  0.1946515148490125  0.5000000000000000
  0.4446515148490125  0.1946515148490125  0.5000000000000000
  0.6946515148490124  0.1946515148490125  0.5000000000000000
  0.9446515148490124  0.1946515148490125  0.5000000000000000
  0.1946515148490125  0.4446515148490125  0.5000000000000000
  0.4446515148490125  0.4446515148490125  0.5000000000000000
  0.6946515148490124  0.4446515148490125  0.5000000000000000